90 117286
86 9 23 47 34 22 59 38 8 5 27 88 30 52 57 71 44 40 61 79 48 75 45 51 63 46 18 74 58 11 56 80 28 83 78 54 84 26 4 24 50 49 31 7 37 68 90 81 17 2 41 16 3 36 10 89 60 21 77 64 69 70 15 19 12 6 66 73 29 67 76 43 55 13 14 85 1 72 25 87 82 33 20 65 32 35 62 39 53 42 
